NAME : amz2982.97588_91588.tour
COMMENT : Cost = 97588_91588
COMMENT : Found by LKH-AMZ [Keld Helsgaun] Sun May 11 14:19:48 2025
COMMENT : TW viol.: 0 #: 0
TYPE : TOUR
DIMENSION : 100
TOUR_SECTION
41
21
89
1
42
20
54
22
10
55
79
40
69
83
3
93
32
33
45
23
37
31
9
57
12
80
97
85
66
47
78
96
98
58
68
43
71
24
2
86
90
28
87
30
81
56
70
84
77
73
75
61
63
100
51
19
7
44
76
11
46
62
8
15
34
52
36
88
4
59
50
17
14
65
26
82
99
72
53
95
74
18
64
94
39
6
13
29
16
60
27
38
5
48
25
49
35
92
67
91
-1
EOF
